AoPS/c6h3036826p27331174.smt2
(set-info :smt-lib-version 2.6)
(set-logic AUFNIRA)
(set-info :source |
Generated by: Mirek Olšák, Mikoláš Janota, Chad E. Brown
Generated on: 2024-04-14
Application: Mathematics challenges involving function synthesis
From a collection by: Vít Musil
Source url: https://prase.cz/library/FunkcionalniRovniceVM/FunkcionalniRovniceVM.pdf
Original source: c6h3036826p27331174
|)
(set-info :license "https://creativecommons.org/licenses/by-nc/4.0/")
(set-info :category "crafted")
(set-info :status sat)

; Header
(declare-fun f (Real) Real)
(assert (forall ((x Real)) (=> (> x 0.0) (> (f x) 0.0))))

; Equations
(assert (forall ((x Real) (y Real)) (=> (and (> x 0.0) (> y 0.0)) (= (* x (f (* x (f (* 2.0 y))))) (+ y (* (* x y) (f x)))))))

; Find all possible f

(check-sat)
(exit)
(get-model)
